c "random instance"
p edges 150 2173
e 1 10
e 1 14
e 1 21
e 1 22
e 1 24
e 1 29
e 1 30
e 1 38
e 1 44
e 1 50
e 1 55
e 1 62
e 1 63
e 1 68
e 1 69
e 1 72
e 1 84
e 1 86
e 1 89
e 1 95
e 1 101
e 1 104
e 1 111
e 1 114
e 1 126
e 1 131
e 1 137
e 2 4
e 2 11
e 2 21
e 2 22
e 2 24
e 2 31
e 2 32
e 2 34
e 2 40
e 2 45
e 2 46
e 2 49
e 2 59
e 2 62
e 2 69
e 2 72
e 2 77
e 2 80
e 2 86
e 2 95
e 2 103
e 2 115
e 2 134
e 2 139
e 2 142
e 3 5
e 3 8
e 3 14
e 3 20
e 3 21
e 3 30
e 3 32
e 3 33
e 3 65
e 3 66
e 3 83
e 3 89
e 3 92
e 3 97
e 3 101
e 3 105
e 3 107
e 3 108
e 3 116
e 3 119
e 3 125
e 3 130
e 3 138
e 3 139
e 3 146
e 3 148
e 4 8
e 4 9
e 4 10
e 4 15
e 4 16
e 4 22
e 4 33
e 4 38
e 4 43
e 4 45
e 4 53
e 4 56
e 4 69
e 4 76
e 4 80
e 4 87
e 4 89
e 4 93
e 4 107
e 4 112
e 4 113
e 4 120
e 4 123
e 4 128
e 4 148
e 5 11
e 5 14
e 5 18
e 5 20
e 5 25
e 5 32
e 5 33
e 5 34
e 5 36
e 5 42
e 5 50
e 5 54
e 5 63
e 5 76
e 5 84
e 5 90
e 5 93
e 5 96
e 5 97
e 5 102
e 5 105
e 5 115
e 5 126
e 5 130
e 5 132
e 5 134
e 5 143
e 5 144
e 6 12
e 6 16
e 6 19
e 6 23
e 6 24
e 6 32
e 6 33
e 6 35
e 6 53
e 6 55
e 6 58
e 6 61
e 6 62
e 6 74
e 6 80
e 6 107
e 6 108
e 6 111
e 6 112
e 6 117
e 6 122
e 6 127
e 6 132
e 6 133
e 6 135
e 6 138
e 6 139
e 7 10
e 7 11
e 7 14
e 7 17
e 7 18
e 7 21
e 7 22
e 7 23
e 7 25
e 7 26
e 7 28
e 7 29
e 7 40
e 7 43
e 7 51
e 7 52
e 7 59
e 7 65
e 7 69
e 7 70
e 7 74
e 7 75
e 7 77
e 7 92
e 7 93
e 7 102
e 7 110
e 7 118
e 7 120
e 7 123
e 7 126
e 7 127
e 7 131
e 7 132
e 7 135
e 7 140
e 7 148
e 7 150
e 8 10
e 8 16
e 8 17
e 8 37
e 8 40
e 8 51
e 8 65
e 8 69
e 8 85
e 8 88
e 8 104
e 8 108
e 8 113
e 8 123
e 8 127
e 8 128
e 8 133
e 8 134
e 8 135
e 8 138
e 8 148
e 9 11
e 9 20
e 9 31
e 9 37
e 9 38
e 9 41
e 9 51
e 9 66
e 9 77
e 9 79
e 9 82
e 9 86
e 9 94
e 9 100
e 9 102
e 9 110
e 9 117
e 9 120
e 9 121
e 9 122
e 9 124
e 9 127
e 9 130
e 9 137
e 9 141
e 9 145
e 9 146
e 10 12
e 10 14
e 10 16
e 10 21
e 10 24
e 10 26
e 10 27
e 10 32
e 10 39
e 10 40
e 10 43
e 10 45
e 10 48
e 10 49
e 10 53
e 10 65
e 10 71
e 10 80
e 10 90
e 10 94
e 10 104
e 10 107
e 10 110
e 10 113
e 10 122
e 10 140
e 10 141
e 10 145
e 11 17
e 11 22
e 11 24
e 11 25
e 11 29
e 11 39
e 11 47
e 11 48
e 11 62
e 11 87
e 11 92
e 11 98
e 11 100
e 11 103
e 11 111
e 11 121
e 11 129
e 11 133
e 11 138
e 11 142
e 11 144
e 11 146
e 11 147
e 12 13
e 12 19
e 12 23
e 12 24
e 12 33
e 12 37
e 12 39
e 12 44
e 12 47
e 12 56
e 12 57
e 12 67
e 12 68
e 12 72
e 12 74
e 12 83
e 12 90
e 12 92
e 12 99
e 12 104
e 12 105
e 12 110
e 12 111
e 12 123
e 12 127
e 12 137
e 12 138
e 12 140
e 12 141
e 12 143
e 13 18
e 13 19
e 13 21
e 13 25
e 13 27
e 13 38
e 13 40
e 13 52
e 13 55
e 13 62
e 13 63
e 13 70
e 13 78
e 13 82
e 13 86
e 13 92
e 13 97
e 13 103
e 13 105
e 13 108
e 13 118
e 13 120
e 13 121
e 13 129
e 13 133
e 13 140
e 14 17
e 14 26
e 14 30
e 14 34
e 14 35
e 14 36
e 14 39
e 14 42
e 14 44
e 14 45
e 14 51
e 14 52
e 14 62
e 14 66
e 14 68
e 14 72
e 14 73
e 14 75
e 14 82
e 14 84
e 14 87
e 14 110
e 14 127
e 14 130
e 14 136
e 15 18
e 15 21
e 15 22
e 15 24
e 15 28
e 15 29
e 15 32
e 15 36
e 15 48
e 15 49
e 15 60
e 15 64
e 15 71
e 15 77
e 15 81
e 15 84
e 15 94
e 15 99
e 15 101
e 15 105
e 15 107
e 15 112
e 15 122
e 15 124
e 15 128
e 15 132
e 15 137
e 15 139
e 15 141
e 15 144
e 16 18
e 16 19
e 16 25
e 16 33
e 16 35
e 16 38
e 16 42
e 16 47
e 16 50
e 16 58
e 16 75
e 16 82
e 16 84
e 16 102
e 16 107
e 16 111
e 16 115
e 16 116
e 16 118
e 16 126
e 16 129
e 16 131
e 16 149
e 17 18
e 17 19
e 17 21
e 17 28
e 17 31
e 17 41
e 17 42
e 17 46
e 17 51
e 17 56
e 17 59
e 17 61
e 17 67
e 17 69
e 17 77
e 17 82
e 17 92
e 17 95
e 17 99
e 17 108
e 17 109
e 17 127
e 17 132
e 17 136
e 17 138
e 17 141
e 17 144
e 17 149
e 18 19
e 18 23
e 18 24
e 18 28
e 18 33
e 18 34
e 18 49
e 18 56
e 18 66
e 18 79
e 18 83
e 18 94
e 18 96
e 18 100
e 18 102
e 18 113
e 18 120
e 18 124
e 19 23
e 19 26
e 19 36
e 19 39
e 19 40
e 19 44
e 19 53
e 19 57
e 19 58
e 19 62
e 19 63
e 19 75
e 19 79
e 19 86
e 19 103
e 19 111
e 19 118
e 19 126
e 19 129
e 19 132
e 19 134
e 19 136
e 19 140
e 19 147
e 20 21
e 20 23
e 20 30
e 20 54
e 20 61
e 20 79
e 20 85
e 20 94
e 20 97
e 20 100
e 20 109
e 20 113
e 20 115
e 20 116
e 20 119
e 20 126
e 20 146
e 21 23
e 21 27
e 21 29
e 21 30
e 21 34
e 21 36
e 21 46
e 21 47
e 21 48
e 21 51
e 21 54
e 21 56
e 21 58
e 21 63
e 21 71
e 21 72
e 21 83
e 21 84
e 21 86
e 21 92
e 21 99
e 21 105
e 21 107
e 21 128
e 21 138
e 21 147
e 22 27
e 22 31
e 22 34
e 22 35
e 22 37
e 22 39
e 22 45
e 22 47
e 22 56
e 22 60
e 22 69
e 22 71
e 22 75
e 22 76
e 22 77
e 22 80
e 22 85
e 22 86
e 22 95
e 22 97
e 22 98
e 22 103
e 22 107
e 22 115
e 22 131
e 22 138
e 22 141
e 22 143
e 22 144
e 22 146
e 23 29
e 23 30
e 23 32
e 23 37
e 23 44
e 23 47
e 23 50
e 23 58
e 23 69
e 23 72
e 23 81
e 23 86
e 23 90
e 23 93
e 23 94
e 23 95
e 23 109
e 23 113
e 23 116
e 23 117
e 23 147
e 24 30
e 24 34
e 24 36
e 24 38
e 24 41
e 24 50
e 24 52
e 24 57
e 24 58
e 24 59
e 24 61
e 24 62
e 24 64
e 24 66
e 24 69
e 24 76
e 24 84
e 24 91
e 24 95
e 24 97
e 24 117
e 24 119
e 24 128
e 24 134
e 24 137
e 24 139
e 24 145
e 24 146
e 25 27
e 25 28
e 25 31
e 25 41
e 25 53
e 25 62
e 25 64
e 25 67
e 25 69
e 25 70
e 25 77
e 25 85
e 25 92
e 25 111
e 25 120
e 25 124
e 25 126
e 25 127
e 25 129
e 25 132
e 25 142
e 25 145
e 26 34
e 26 36
e 26 37
e 26 39
e 26 40
e 26 41
e 26 42
e 26 57
e 26 63
e 26 67
e 26 71
e 26 77
e 26 79
e 26 92
e 26 93
e 26 95
e 26 97
e 26 100
e 26 111
e 26 120
e 26 128
e 26 137
e 26 139
e 26 143
e 26 145
e 27 31
e 27 36
e 27 38
e 27 41
e 27 52
e 27 58
e 27 59
e 27 65
e 27 73
e 27 75
e 27 77
e 27 82
e 27 83
e 27 86
e 27 87
e 27 90
e 27 92
e 27 93
e 27 101
e 27 110
e 27 111
e 27 112
e 27 117
e 27 121
e 27 128
e 27 134
e 27 147
e 27 148
e 28 36
e 28 46
e 28 56
e 28 60
e 28 62
e 28 66
e 28 73
e 28 78
e 28 84
e 28 97
e 28 104
e 28 110
e 28 111
e 28 117
e 28 120
e 28 125
e 28 142
e 28 143
e 28 145
e 28 149
e 28 150
e 29 32
e 29 34
e 29 44
e 29 45
e 29 55
e 29 68
e 29 69
e 29 71
e 29 72
e 29 73
e 29 74
e 29 75
e 29 77
e 29 83
e 29 86
e 29 88
e 29 90
e 29 96
e 29 98
e 29 100
e 29 102
e 29 106
e 29 108
e 29 110
e 29 120
e 29 121
e 29 124
e 29 127
e 29 129
e 29 141
e 29 143
e 29 147
e 30 32
e 30 38
e 30 46
e 30 50
e 30 56
e 30 62
e 30 66
e 30 68
e 30 72
e 30 78
e 30 84
e 30 88
e 30 90
e 30 103
e 30 129
e 30 131
e 30 132
e 30 133
e 30 141
e 31 45
e 31 48
e 31 52
e 31 53
e 31 54
e 31 61
e 31 67
e 31 84
e 31 85
e 31 98
e 31 102
e 31 107
e 31 109
e 31 116
e 31 119
e 31 123
e 31 126
e 31 127
e 31 133
e 31 136
e 31 145
e 31 146
e 31 147
e 31 149
e 32 35
e 32 39
e 32 43
e 32 68
e 32 69
e 32 80
e 32 81
e 32 86
e 32 92
e 32 99
e 32 101
e 32 102
e 32 107
e 32 108
e 32 109
e 32 111
e 32 115
e 32 116
e 32 130
e 32 136
e 32 139
e 32 143
e 32 145
e 33 49
e 33 51
e 33 54
e 33 56
e 33 61
e 33 62
e 33 70
e 33 71
e 33 78
e 33 84
e 33 88
e 33 90
e 33 96
e 33 120
e 33 133
e 33 137
e 33 144
e 34 35
e 34 43
e 34 53
e 34 71
e 34 78
e 34 81
e 34 100
e 34 101
e 34 116
e 34 118
e 34 119
e 34 120
e 34 121
e 34 122
e 34 141
e 34 142
e 34 144
e 35 42
e 35 45
e 35 48
e 35 51
e 35 54
e 35 55
e 35 56
e 35 57
e 35 60
e 35 62
e 35 63
e 35 67
e 35 69
e 35 71
e 35 72
e 35 75
e 35 78
e 35 79
e 35 80
e 35 81
e 35 84
e 35 89
e 35 96
e 35 97
e 35 107
e 35 119
e 35 121
e 35 125
e 35 129
e 35 131
e 35 137
e 35 140
e 35 148
e 36 38
e 36 46
e 36 48
e 36 59
e 36 61
e 36 69
e 36 73
e 36 78
e 36 84
e 36 90
e 36 105
e 36 108
e 36 114
e 36 116
e 36 118
e 36 120
e 36 123
e 36 136
e 36 137
e 36 141
e 36 149
e 37 44
e 37 51
e 37 55
e 37 66
e 37 69
e 37 76
e 37 82
e 37 86
e 37 93
e 37 98
e 37 99
e 37 102
e 37 104
e 37 107
e 37 113
e 37 117
e 37 118
e 37 121
e 37 123
e 37 127
e 37 128
e 37 129
e 37 131
e 38 51
e 38 61
e 38 64
e 38 71
e 38 75
e 38 79
e 38 80
e 38 91
e 38 93
e 38 101
e 38 113
e 38 115
e 38 121
e 38 136
e 38 149
e 39 48
e 39 58
e 39 67
e 39 68
e 39 69
e 39 72
e 39 80
e 39 93
e 39 101
e 39 102
e 39 117
e 39 130
e 39 131
e 39 136
e 39 144
e 39 145
e 39 150
e 40 52
e 40 54
e 40 62
e 40 66
e 40 73
e 40 78
e 40 81
e 40 86
e 40 87
e 40 93
e 40 97
e 40 98
e 40 107
e 40 111
e 40 113
e 40 115
e 40 123
e 40 126
e 40 130
e 40 131
e 40 136
e 40 147
e 40 149
e 41 46
e 41 57
e 41 58
e 41 65
e 41 67
e 41 68
e 41 71
e 41 72
e 41 76
e 41 78
e 41 81
e 41 85
e 41 90
e 41 92
e 41 99
e 41 104
e 41 108
e 41 115
e 41 118
e 41 121
e 41 125
e 41 126
e 41 127
e 41 132
e 41 141
e 41 145
e 42 43
e 42 46
e 42 51
e 42 52
e 42 56
e 42 57
e 42 82
e 42 93
e 42 94
e 42 95
e 42 103
e 42 109
e 42 114
e 42 118
e 42 120
e 42 124
e 42 136
e 42 139
e 42 143
e 42 146
e 43 66
e 43 68
e 43 77
e 43 84
e 43 86
e 43 89
e 43 90
e 43 92
e 43 102
e 43 106
e 43 108
e 43 111
e 43 120
e 43 127
e 43 131
e 43 132
e 43 134
e 43 135
e 43 138
e 43 139
e 43 149
e 44 48
e 44 51
e 44 54
e 44 64
e 44 65
e 44 67
e 44 68
e 44 74
e 44 75
e 44 77
e 44 81
e 44 82
e 44 83
e 44 90
e 44 92
e 44 96
e 44 99
e 44 107
e 44 109
e 44 110
e 44 118
e 44 121
e 44 123
e 44 124
e 44 134
e 44 142
e 44 145
e 44 147
e 44 149
e 45 57
e 45 60
e 45 62
e 45 63
e 45 65
e 45 69
e 45 71
e 45 75
e 45 80
e 45 82
e 45 83
e 45 92
e 45 114
e 45 119
e 45 144
e 45 145
e 46 47
e 46 52
e 46 54
e 46 64
e 46 71
e 46 75
e 46 79
e 46 80
e 46 82
e 46 83
e 46 93
e 46 95
e 46 99
e 46 104
e 46 107
e 46 114
e 46 123
e 46 124
e 46 127
e 46 138
e 46 139
e 46 141
e 46 143
e 47 52
e 47 71
e 47 77
e 47 83
e 47 84
e 47 91
e 47 93
e 47 100
e 47 111
e 47 112
e 47 115
e 47 117
e 47 123
e 47 132
e 47 133
e 47 137
e 47 138
e 48 49
e 48 56
e 48 58
e 48 83
e 48 89
e 48 96
e 48 102
e 48 103
e 48 124
e 48 136
e 49 51
e 49 61
e 49 71
e 49 73
e 49 87
e 49 92
e 49 97
e 49 101
e 49 115
e 49 118
e 49 126
e 49 135
e 49 141
e 49 142
e 49 148
e 50 60
e 50 65
e 50 68
e 50 76
e 50 84
e 50 89
e 50 99
e 50 103
e 50 104
e 50 119
e 50 140
e 51 52
e 51 58
e 51 60
e 51 67
e 51 72
e 51 73
e 51 76
e 51 83
e 51 85
e 51 93
e 51 96
e 51 97
e 51 98
e 51 99
e 51 107
e 51 122
e 51 127
e 51 132
e 51 134
e 51 138
e 51 140
e 51 147
e 52 57
e 52 62
e 52 68
e 52 70
e 52 71
e 52 74
e 52 75
e 52 82
e 52 89
e 52 95
e 52 99
e 52 103
e 52 105
e 52 106
e 52 110
e 52 113
e 52 117
e 52 118
e 52 121
e 52 128
e 52 136
e 52 137
e 52 144
e 53 60
e 53 71
e 53 72
e 53 73
e 53 75
e 53 81
e 53 86
e 53 92
e 53 97
e 53 101
e 53 107
e 53 108
e 53 109
e 53 111
e 53 112
e 53 114
e 53 116
e 53 117
e 53 118
e 53 120
e 53 124
e 53 130
e 53 137
e 53 138
e 53 141
e 53 143
e 53 144
e 54 56
e 54 57
e 54 58
e 54 63
e 54 64
e 54 73
e 54 79
e 54 86
e 54 102
e 54 115
e 54 117
e 54 123
e 54 127
e 54 130
e 54 136
e 54 137
e 54 141
e 54 144
e 54 147
e 55 57
e 55 66
e 55 67
e 55 80
e 55 85
e 55 88
e 55 89
e 55 100
e 55 104
e 55 107
e 55 109
e 55 112
e 55 118
e 55 127
e 55 136
e 55 137
e 55 141
e 55 143
e 56 58
e 56 59
e 56 63
e 56 68
e 56 69
e 56 79
e 56 86
e 56 87
e 56 91
e 56 92
e 56 95
e 56 106
e 56 112
e 56 114
e 56 133
e 56 134
e 56 142
e 56 144
e 57 59
e 57 62
e 57 66
e 57 70
e 57 71
e 57 84
e 57 85
e 57 102
e 57 104
e 57 106
e 57 113
e 57 122
e 57 126
e 57 129
e 57 135
e 57 136
e 57 137
e 57 140
e 57 145
e 57 148
e 58 59
e 58 64
e 58 66
e 58 69
e 58 76
e 58 77
e 58 78
e 58 79
e 58 91
e 58 97
e 58 113
e 58 115
e 58 116
e 58 123
e 58 127
e 58 128
e 58 129
e 58 132
e 58 136
e 58 140
e 58 149
e 59 61
e 59 64
e 59 75
e 59 78
e 59 90
e 59 91
e 59 104
e 59 109
e 59 110
e 59 113
e 59 114
e 59 117
e 59 120
e 59 123
e 59 127
e 59 140
e 59 144
e 59 146
e 60 62
e 60 64
e 60 69
e 60 70
e 60 90
e 60 94
e 60 95
e 60 103
e 60 129
e 60 133
e 60 143
e 60 147
e 61 63
e 61 64
e 61 66
e 61 75
e 61 81
e 61 85
e 61 88
e 61 91
e 61 93
e 61 99
e 61 104
e 61 112
e 61 124
e 61 130
e 61 131
e 61 132
e 61 134
e 61 136
e 61 144
e 61 146
e 62 68
e 62 69
e 62 73
e 62 83
e 62 100
e 62 101
e 62 108
e 62 110
e 62 113
e 62 119
e 62 143
e 62 147
e 62 149
e 62 150
e 63 70
e 63 73
e 63 80
e 63 81
e 63 84
e 63 86
e 63 89
e 63 90
e 63 91
e 63 98
e 63 105
e 63 106
e 63 109
e 63 113
e 63 114
e 63 118
e 63 119
e 63 121
e 63 126
e 63 127
e 63 134
e 63 149
e 63 150
e 64 81
e 64 82
e 64 91
e 64 92
e 64 93
e 64 96
e 64 99
e 64 103
e 64 105
e 64 106
e 64 108
e 64 116
e 64 125
e 64 127
e 64 128
e 64 132
e 64 135
e 64 146
e 64 148
e 65 66
e 65 70
e 65 75
e 65 76
e 65 82
e 65 87
e 65 93
e 65 97
e 65 116
e 65 120
e 65 127
e 65 143
e 65 149
e 66 69
e 66 72
e 66 74
e 66 75
e 66 79
e 66 81
e 66 82
e 66 88
e 66 90
e 66 102
e 66 104
e 66 105
e 66 117
e 66 132
e 66 138
e 66 140
e 66 141
e 67 77
e 67 81
e 67 89
e 67 94
e 67 101
e 67 108
e 67 114
e 67 127
e 67 132
e 67 144
e 67 150
e 68 76
e 68 77
e 68 88
e 68 95
e 68 101
e 68 115
e 68 120
e 68 121
e 68 125
e 68 138
e 68 141
e 69 79
e 69 81
e 69 82
e 69 85
e 69 92
e 69 95
e 69 100
e 69 106
e 69 119
e 69 122
e 69 124
e 69 125
e 69 128
e 69 130
e 69 133
e 69 142
e 69 143
e 69 145
e 69 146
e 70 74
e 70 78
e 70 79
e 70 85
e 70 88
e 70 99
e 70 100
e 70 101
e 70 102
e 70 103
e 70 105
e 70 106
e 70 108
e 70 116
e 70 118
e 70 120
e 70 121
e 70 133
e 70 134
e 70 139
e 70 145
e 70 150
e 71 72
e 71 74
e 71 77
e 71 82
e 71 90
e 71 106
e 71 107
e 71 115
e 71 118
e 71 133
e 71 144
e 71 148
e 72 76
e 72 85
e 72 100
e 72 106
e 72 115
e 72 120
e 72 122
e 72 136
e 72 139
e 72 140
e 72 143
e 72 150
e 73 77
e 73 78
e 73 83
e 73 90
e 73 92
e 73 97
e 73 103
e 73 108
e 73 117
e 73 122
e 73 124
e 73 128
e 73 129
e 73 135
e 73 142
e 73 146
e 74 79
e 74 90
e 74 91
e 74 97
e 74 104
e 74 105
e 74 106
e 74 114
e 74 116
e 74 127
e 74 135
e 74 138
e 74 147
e 74 148
e 75 76
e 75 82
e 75 99
e 75 101
e 75 105
e 75 111
e 75 112
e 75 122
e 75 124
e 75 128
e 75 142
e 75 150
e 76 78
e 76 100
e 76 101
e 76 105
e 76 108
e 76 114
e 76 119
e 76 125
e 76 126
e 76 129
e 76 131
e 76 133
e 76 134
e 76 135
e 76 143
e 76 145
e 76 146
e 76 149
e 77 78
e 77 90
e 77 91
e 77 98
e 77 107
e 77 108
e 77 113
e 77 114
e 77 120
e 77 123
e 77 133
e 77 137
e 77 143
e 77 144
e 78 80
e 78 82
e 78 84
e 78 86
e 78 89
e 78 90
e 78 96
e 78 103
e 78 105
e 78 109
e 78 111
e 78 114
e 78 121
e 78 128
e 78 129
e 78 132
e 78 134
e 78 135
e 78 141
e 78 144
e 78 145
e 78 148
e 79 92
e 79 93
e 79 100
e 79 103
e 79 107
e 79 110
e 79 112
e 79 113
e 79 121
e 79 123
e 79 124
e 79 130
e 79 134
e 79 137
e 79 138
e 79 145
e 80 83
e 80 84
e 80 85
e 80 88
e 80 89
e 80 91
e 80 96
e 80 97
e 80 100
e 80 101
e 80 105
e 80 108
e 80 113
e 80 121
e 80 124
e 80 125
e 80 130
e 80 134
e 80 137
e 80 141
e 80 143
e 81 90
e 81 92
e 81 100
e 81 103
e 81 107
e 81 116
e 81 117
e 81 121
e 81 122
e 81 124
e 81 131
e 81 138
e 81 140
e 81 142
e 81 143
e 82 93
e 82 95
e 82 100
e 82 109
e 82 117
e 82 119
e 82 129
e 82 130
e 82 132
e 82 146
e 82 148
e 83 106
e 83 107
e 83 109
e 83 117
e 83 118
e 83 119
e 83 124
e 83 125
e 83 126
e 83 132
e 83 134
e 83 136
e 83 138
e 83 147
e 83 148
e 84 88
e 84 90
e 84 92
e 84 93
e 84 100
e 84 101
e 84 102
e 84 109
e 84 114
e 84 118
e 84 119
e 84 121
e 84 127
e 84 128
e 84 132
e 84 137
e 84 140
e 84 142
e 84 147
e 85 91
e 85 95
e 85 100
e 85 107
e 85 139
e 85 143
e 85 148
e 86 90
e 86 95
e 86 98
e 86 99
e 86 100
e 86 102
e 86 105
e 86 118
e 86 124
e 86 125
e 86 126
e 86 128
e 86 139
e 86 146
e 87 88
e 87 94
e 87 98
e 87 101
e 87 102
e 87 113
e 87 124
e 87 128
e 87 130
e 87 133
e 87 134
e 87 140
e 87 148
e 87 149
e 88 92
e 88 93
e 88 106
e 88 109
e 88 114
e 88 118
e 88 119
e 88 121
e 88 123
e 88 125
e 88 129
e 88 140
e 88 142
e 88 150
e 89 95
e 89 99
e 89 101
e 89 106
e 89 108
e 89 120
e 89 125
e 89 126
e 89 134
e 89 136
e 89 141
e 89 146
e 89 149
e 89 150
e 90 95
e 90 102
e 90 110
e 90 127
e 90 130
e 90 132
e 90 137
e 90 141
e 90 142
e 90 145
e 90 150
e 91 96
e 91 100
e 91 105
e 91 106
e 91 108
e 91 117
e 91 134
e 91 139
e 91 141
e 91 145
e 91 146
e 92 93
e 92 94
e 92 102
e 92 103
e 92 109
e 92 110
e 92 115
e 92 120
e 92 123
e 92 130
e 92 145
e 92 150
e 93 101
e 93 107
e 93 126
e 93 128
e 93 129
e 93 133
e 93 139
e 93 146
e 94 96
e 94 100
e 94 105
e 94 117
e 94 118
e 94 128
e 94 132
e 94 134
e 94 137
e 94 138
e 94 142
e 94 144
e 94 145
e 95 98
e 95 106
e 95 107
e 95 110
e 95 112
e 95 118
e 95 122
e 95 137
e 95 139
e 95 141
e 95 144
e 95 145
e 95 146
e 96 97
e 96 107
e 96 108
e 96 112
e 96 117
e 96 119
e 96 126
e 96 133
e 96 136
e 96 149
e 97 100
e 97 105
e 97 113
e 97 118
e 97 119
e 97 122
e 97 127
e 97 129
e 97 140
e 97 143
e 97 149
e 98 103
e 98 107
e 98 112
e 98 113
e 98 119
e 98 121
e 98 122
e 98 131
e 98 133
e 98 134
e 98 135
e 98 137
e 98 139
e 99 110
e 99 115
e 99 116
e 99 122
e 99 124
e 99 128
e 99 129
e 99 136
e 99 140
e 100 102
e 100 115
e 100 117
e 100 119
e 100 121
e 100 131
e 100 133
e 100 138
e 100 148
e 100 150
e 101 102
e 101 107
e 101 116
e 101 122
e 101 128
e 101 130
e 101 131
e 101 138
e 101 139
e 101 140
e 101 141
e 101 142
e 101 143
e 101 149
e 102 111
e 102 116
e 102 120
e 102 121
e 102 126
e 102 144
e 102 147
e 103 105
e 103 107
e 103 121
e 103 126
e 103 149
e 103 150
e 104 106
e 104 115
e 104 119
e 104 121
e 104 124
e 104 133
e 104 140
e 104 143
e 104 144
e 104 145
e 105 111
e 105 112
e 105 115
e 105 116
e 105 135
e 106 109
e 106 110
e 106 113
e 106 115
e 106 119
e 106 121
e 106 122
e 106 124
e 106 127
e 106 130
e 106 132
e 106 133
e 106 138
e 106 140
e 107 121
e 107 123
e 107 128
e 107 138
e 107 149
e 108 116
e 108 119
e 108 121
e 108 122
e 108 124
e 108 130
e 108 132
e 108 133
e 108 134
e 108 138
e 108 142
e 108 145
e 109 112
e 109 113
e 109 120
e 109 127
e 109 130
e 109 134
e 109 137
e 109 143
e 109 145
e 109 146
e 109 147
e 110 118
e 110 121
e 110 122
e 110 129
e 110 130
e 110 134
e 110 142
e 110 146
e 111 118
e 111 123
e 111 124
e 111 127
e 111 134
e 111 137
e 111 142
e 112 121
e 112 125
e 112 128
e 112 130
e 112 133
e 112 146
e 112 148
e 113 117
e 113 118
e 113 124
e 113 125
e 113 130
e 113 136
e 113 140
e 114 126
e 114 128
e 114 130
e 114 131
e 114 135
e 114 137
e 114 138
e 114 143
e 114 147
e 114 150
e 115 119
e 115 124
e 115 129
e 115 130
e 115 135
e 115 137
e 115 141
e 115 142
e 116 127
e 116 129
e 116 130
e 116 131
e 116 133
e 116 135
e 116 137
e 116 143
e 116 145
e 116 149
e 117 118
e 117 125
e 117 127
e 117 133
e 117 135
e 117 137
e 117 138
e 117 144
e 117 145
e 117 150
e 118 122
e 118 124
e 118 128
e 118 131
e 118 134
e 118 141
e 119 127
e 119 136
e 119 140
e 119 141
e 119 142
e 120 121
e 120 143
e 120 146
e 120 148
e 120 149
e 121 123
e 121 127
e 121 130
e 121 133
e 122 140
e 122 142
e 122 149
e 122 150
e 123 124
e 123 127
e 123 131
e 123 136
e 124 126
e 124 135
e 124 137
e 124 142
e 124 147
e 125 130
e 125 149
e 125 150
e 126 129
e 126 130
e 126 141
e 127 134
e 127 147
e 128 132
e 128 135
e 128 136
e 128 143
e 128 146
e 128 149
e 129 131
e 129 138
e 129 141
e 129 147
e 129 148
e 129 150
e 130 131
e 130 134
e 130 138
e 130 140
e 130 141
e 130 144
e 130 146
e 131 133
e 131 149
e 132 134
e 132 136
e 132 139
e 132 141
e 132 142
e 132 143
e 132 145
e 132 149
e 133 140
e 133 147
e 133 149
e 134 137
e 135 146
e 135 148
e 137 141
e 137 143
e 137 147
e 137 148
e 138 141
e 140 149
e 141 149
e 142 146
e 149 150
